c Mesh Graph
c 4 Rows, 4 columns, capacities in range [0, 8]
p max 18 44
n 1 s
n 18 t
a 1 5 24
a 1 4 24
a 1 3 24
a 1 2 24
a 2 7 2
a 2 6 5
a 2 9 6
a 3 8 7
a 3 7 5
a 3 6 1
a 4 9 6
a 4 8 5
a 4 7 8
a 5 6 1
a 5 9 8
a 5 8 1
a 6 11 7
a 6 10 8
a 6 13 3
a 7 12 7
a 7 11 2
a 7 10 3
a 8 13 7
a 8 12 7
a 8 11 7
a 9 10 8
a 9 13 1
a 9 12 3
a 10 15 3
a 10 14 5
a 10 17 2
a 11 16 2
a 11 15 2
a 11 14 1
a 12 17 6
a 12 16 7
a 12 15 1
a 13 14 3
a 13 17 7
a 13 16 3
a 14 18 24
a 15 18 24
a 16 18 24
a 17 18 24